c CNF file corresponding to a (partial) station packing problem.
p cnf 5699 229
5683 5684 5685 5686 5687 5688 5689 5690 5691 5692 5693 5694 5695 5696 5697 5698 5699 0
-5683 -5684 0
-5683 -5685 0
-5683 -5686 0
-5683 -5687 0
-5683 -5688 0
-5683 -5689 0
-5683 -5690 0
-5683 -5691 0
-5683 -5692 0
-5683 -5693 0
-5683 -5694 0
-5683 -5695 0
-5683 -5696 0
-5683 -5697 0
-5683 -5698 0
-5683 -5699 0
-5684 -5685 0
-5684 -5686 0
-5684 -5687 0
-5684 -5688 0
-5684 -5689 0
-5684 -5690 0
-5684 -5691 0
-5684 -5692 0
-5684 -5693 0
-5684 -5694 0
-5684 -5695 0
-5684 -5696 0
-5684 -5697 0
-5684 -5698 0
-5684 -5699 0
-5685 -5686 0
-5685 -5687 0
-5685 -5688 0
-5685 -5689 0
-5685 -5690 0
-5685 -5691 0
-5685 -5692 0
-5685 -5693 0
-5685 -5694 0
-5685 -5695 0
-5685 -5696 0
-5685 -5697 0
-5685 -5698 0
-5685 -5699 0
-5686 -5687 0
-5686 -5688 0
-5686 -5689 0
-5686 -5690 0
-5686 -5691 0
-5686 -5692 0
-5686 -5693 0
-5686 -5694 0
-5686 -5695 0
-5686 -5696 0
-5686 -5697 0
-5686 -5698 0
-5686 -5699 0
-5687 -5688 0
-5687 -5689 0
-5687 -5690 0
-5687 -5691 0
-5687 -5692 0
-5687 -5693 0
-5687 -5694 0
-5687 -5695 0
-5687 -5696 0
-5687 -5697 0
-5687 -5698 0
-5687 -5699 0
-5688 -5689 0
-5688 -5690 0
-5688 -5691 0
-5688 -5692 0
-5688 -5693 0
-5688 -5694 0
-5688 -5695 0
-5688 -5696 0
-5688 -5697 0
-5688 -5698 0
-5688 -5699 0
-5689 -5690 0
-5689 -5691 0
-5689 -5692 0
-5689 -5693 0
-5689 -5694 0
-5689 -5695 0
-5689 -5696 0
-5689 -5697 0
-5689 -5698 0
-5689 -5699 0
-5690 -5691 0
-5690 -5692 0
-5690 -5693 0
-5690 -5694 0
-5690 -5695 0
-5690 -5696 0
-5690 -5697 0
-5690 -5698 0
-5690 -5699 0
-5691 -5692 0
-5691 -5693 0
-5691 -5694 0
-5691 -5695 0
-5691 -5696 0
-5691 -5697 0
-5691 -5698 0
-5691 -5699 0
-5692 -5693 0
-5692 -5694 0
-5692 -5695 0
-5692 -5696 0
-5692 -5697 0
-5692 -5698 0
-5692 -5699 0
-5693 -5694 0
-5693 -5695 0
-5693 -5696 0
-5693 -5697 0
-5693 -5698 0
-5693 -5699 0
-5694 -5695 0
-5694 -5696 0
-5694 -5697 0
-5694 -5698 0
-5694 -5699 0
-5695 -5696 0
-5695 -5697 0
-5695 -5698 0
-5695 -5699 0
-5696 -5697 0
-5696 -5698 0
-5696 -5699 0
-5697 -5698 0
-5697 -5699 0
-5698 -5699 0
1 2 3 4 5 6 7 8 9 10 11 12 13 14 0
-1 -2 0
-1 -3 0
-1 -4 0
-1 -5 0
-1 -6 0
-1 -7 0
-1 -8 0
-1 -9 0
-1 -10 0
-1 -11 0
-1 -12 0
-1 -13 0
-1 -14 0
-2 -3 0
-2 -4 0
-2 -5 0
-2 -6 0
-2 -7 0
-2 -8 0
-2 -9 0
-2 -10 0
-2 -11 0
-2 -12 0
-2 -13 0
-2 -14 0
-3 -4 0
-3 -5 0
-3 -6 0
-3 -7 0
-3 -8 0
-3 -9 0
-3 -10 0
-3 -11 0
-3 -12 0
-3 -13 0
-3 -14 0
-4 -5 0
-4 -6 0
-4 -7 0
-4 -8 0
-4 -9 0
-4 -10 0
-4 -11 0
-4 -12 0
-4 -13 0
-4 -14 0
-5 -6 0
-5 -7 0
-5 -8 0
-5 -9 0
-5 -10 0
-5 -11 0
-5 -12 0
-5 -13 0
-5 -14 0
-6 -7 0
-6 -8 0
-6 -9 0
-6 -10 0
-6 -11 0
-6 -12 0
-6 -13 0
-6 -14 0
-7 -8 0
-7 -9 0
-7 -10 0
-7 -11 0
-7 -12 0
-7 -13 0
-7 -14 0
-8 -9 0
-8 -10 0
-8 -11 0
-8 -12 0
-8 -13 0
-8 -14 0
-9 -10 0
-9 -11 0
-9 -12 0
-9 -13 0
-9 -14 0
-10 -11 0
-10 -12 0
-10 -13 0
-10 -14 0
-11 -12 0
-11 -13 0
-11 -14 0
-12 -13 0
-12 -14 0
-13 -14 0
